(set-logic QF_S)
(declare-fun var0 () String)
(declare-fun var1 () String)
(declare-fun var2 () String)
(declare-fun var3 () String)
(declare-fun var4 () Int)
(declare-fun var5 () Int)
(declare-fun var6 () Int)
(declare-fun var7 () Int)
(assert (>= (str.to.int var0) (str.to.int var1)))
(assert (not (str.suffixof var2 var3)))
(assert (str.in.re (str.substr var2 var4 var5) (re.* re.allchar)))
(assert (< (str.indexof var3 var3 var6) (str.indexof "c@P" var1 var7)))
(check-sat)